solution status: time limit reached
objective value:                               -19000
C953259                                             1 	(obj:-1000)
delta_0_0_1                                         1 	(obj:0)
delta_0_1_0                                         1 	(obj:0)
delta_0_2_2                                         1 	(obj:0)
delta_1_0_2                                         1 	(obj:0)
delta_1_1_1                                         1 	(obj:0)
delta_1_2_0                                         1 	(obj:0)
delta_2_0_0                                         1 	(obj:0)
delta_2_1_2                                         1 	(obj:0)
delta_2_2_1                                         1 	(obj:0)
delta_3_0_0                                         1 	(obj:0)
delta_3_1_1                                         1 	(obj:0)
delta_3_2_2                                         1 	(obj:0)
delta_4_0_0                                         1 	(obj:0)
delta_4_1_1                                         1 	(obj:0)
delta_4_2_2                                         1 	(obj:0)
delta_5_0_0                                         1 	(obj:0)
delta_5_1_1                                         1 	(obj:0)
delta_5_2_2                                         1 	(obj:0)
delta_6_0_2                                         1 	(obj:0)
delta_6_1_1                                         1 	(obj:0)
delta_6_2_0                                         1 	(obj:0)
delta_7_0_1                                         1 	(obj:0)
delta_7_1_0                                         1 	(obj:0)
delta_7_2_2                                         1 	(obj:0)
delta_8_0_1                                         1 	(obj:0)
delta_8_1_2                                         1 	(obj:0)
delta_8_2_0                                         1 	(obj:0)
delta_9_0_1                                         1 	(obj:0)
delta_9_1_2                                         1 	(obj:0)
delta_9_2_0                                         1 	(obj:0)
delta_10_0_0                                        1 	(obj:0)
delta_10_1_1                                        1 	(obj:0)
delta_10_2_2                                        1 	(obj:0)
delta_11_0_0                                        1 	(obj:0)
delta_11_1_1                                        1 	(obj:0)
delta_11_2_2                                        1 	(obj:0)
delta_12_0_0                                        1 	(obj:0)
delta_12_1_2                                        1 	(obj:0)
delta_12_2_1                                        1 	(obj:0)
delta_13_0_0                                        1 	(obj:0)
delta_13_1_1                                        1 	(obj:0)
delta_13_2_2                                        1 	(obj:0)
delta_14_0_0                                        1 	(obj:0)
delta_14_1_1                                        1 	(obj:0)
delta_14_2_2                                        1 	(obj:0)
delta_15_0_1                                        1 	(obj:0)
delta_15_1_0                                        1 	(obj:0)
delta_15_2_2                                        1 	(obj:0)
delta_16_0_1                                        1 	(obj:0)
delta_16_1_0                                        1 	(obj:0)
delta_16_2_2                                        1 	(obj:0)
delta_17_0_2                                        1 	(obj:0)
delta_17_1_1                                        1 	(obj:0)
delta_17_2_0                                        1 	(obj:0)
delta_18_0_1                                        1 	(obj:0)
delta_18_1_2                                        1 	(obj:0)
delta_18_2_0                                        1 	(obj:0)
lambda_0_2_1                                        1 	(obj:0)
lambda_0_3_1                                        1 	(obj:0)
lambda_0_4_1                                        1 	(obj:0)
lambda_0_5_1                                        1 	(obj:0)
lambda_0_7_1                                        1 	(obj:0)
lambda_0_9_1                                        1 	(obj:0)
lambda_0_11_1                                       1 	(obj:0)
lambda_0_15_1                                       1 	(obj:0)
lambda_0_16_1                                       1 	(obj:0)
lambda_1_0_1                                        1 	(obj:0)
lambda_1_2_1                                        1 	(obj:0)
lambda_1_3_1                                        1 	(obj:0)
lambda_1_4_1                                        1 	(obj:0)
lambda_1_5_1                                        1 	(obj:0)
lambda_1_7_1                                        1 	(obj:0)
lambda_1_9_1                                        1 	(obj:0)
lambda_1_11_1                                       1 	(obj:0)
lambda_1_15_1                                       1 	(obj:0)
lambda_1_16_1                                       1 	(obj:0)
lambda_1_18_1                                       1 	(obj:0)
lambda_2_16_1                                       1 	(obj:0)
lambda_3_2_1                                        1 	(obj:0)
lambda_3_4_1                                        1 	(obj:0)
lambda_3_5_1                                        1 	(obj:0)
lambda_3_7_1                                        1 	(obj:0)
lambda_3_9_1                                        1 	(obj:0)
lambda_3_11_1                                       1 	(obj:0)
lambda_3_15_1                                       1 	(obj:0)
lambda_3_16_1                                       1 	(obj:0)
lambda_4_2_1                                        1 	(obj:0)
lambda_4_5_1                                        1 	(obj:0)
lambda_4_7_1                                        1 	(obj:0)
lambda_4_9_1                                        1 	(obj:0)
lambda_4_11_1                                       1 	(obj:0)
lambda_4_16_1                                       1 	(obj:0)
lambda_5_2_1                                        1 	(obj:0)
lambda_5_16_1                                       1 	(obj:0)
lambda_6_0_1                                        1 	(obj:0)
lambda_6_1_1                                        1 	(obj:0)
lambda_6_2_1                                        1 	(obj:0)
lambda_6_3_1                                        1 	(obj:0)
lambda_6_4_1                                        1 	(obj:0)
lambda_6_5_1                                        1 	(obj:0)
lambda_6_7_1                                        1 	(obj:0)
lambda_6_8_1                                        1 	(obj:0)
lambda_6_9_1                                        1 	(obj:0)
lambda_6_11_1                                       1 	(obj:0)
lambda_6_12_1                                       1 	(obj:0)
lambda_6_13_1                                       1 	(obj:0)
lambda_6_15_1                                       1 	(obj:0)
lambda_6_16_1                                       1 	(obj:0)
lambda_6_17_1                                       1 	(obj:0)
lambda_6_18_1                                       1 	(obj:0)
lambda_7_2_1                                        1 	(obj:0)
lambda_7_5_1                                        1 	(obj:0)
lambda_7_9_1                                        1 	(obj:0)
lambda_7_11_1                                       1 	(obj:0)
lambda_7_16_1                                       1 	(obj:0)
lambda_8_0_1                                        1 	(obj:0)
lambda_8_1_1                                        1 	(obj:0)
lambda_8_2_1                                        1 	(obj:0)
lambda_8_3_1                                        1 	(obj:0)
lambda_8_4_1                                        1 	(obj:0)
lambda_8_5_1                                        1 	(obj:0)
lambda_8_7_1                                        1 	(obj:0)
lambda_8_9_1                                        1 	(obj:0)
lambda_8_11_1                                       1 	(obj:0)
lambda_8_12_1                                       1 	(obj:0)
lambda_8_13_1                                       1 	(obj:0)
lambda_8_15_1                                       1 	(obj:0)
lambda_8_16_1                                       1 	(obj:0)
lambda_8_18_1                                       1 	(obj:0)
lambda_9_2_1                                        1 	(obj:0)
lambda_9_5_1                                        1 	(obj:0)
lambda_9_11_1                                       1 	(obj:0)
lambda_9_16_1                                       1 	(obj:0)
lambda_10_0_1                                       1 	(obj:0)
lambda_10_1_1                                       1 	(obj:0)
lambda_10_2_1                                       1 	(obj:0)
lambda_10_3_1                                       1 	(obj:0)
lambda_10_4_1                                       1 	(obj:0)
lambda_10_5_1                                       1 	(obj:0)
lambda_10_6_1                                       1 	(obj:0)
lambda_10_7_1                                       1 	(obj:0)
lambda_10_8_1                                       1 	(obj:0)
lambda_10_9_1                                       1 	(obj:0)
lambda_10_11_1                                      1 	(obj:0)
lambda_10_12_1                                      1 	(obj:0)
lambda_10_13_1                                      1 	(obj:0)
lambda_10_15_1                                      1 	(obj:0)
lambda_10_16_1                                      1 	(obj:0)
lambda_10_17_1                                      1 	(obj:0)
lambda_10_18_1                                      1 	(obj:0)
lambda_11_2_1                                       1 	(obj:0)
lambda_11_5_1                                       1 	(obj:0)
lambda_11_16_1                                      1 	(obj:0)
lambda_12_0_1                                       1 	(obj:0)
lambda_12_1_1                                       1 	(obj:0)
lambda_12_2_1                                       1 	(obj:0)
lambda_12_3_1                                       1 	(obj:0)
lambda_12_4_1                                       1 	(obj:0)
lambda_12_5_1                                       1 	(obj:0)
lambda_12_7_1                                       1 	(obj:0)
lambda_12_9_1                                       1 	(obj:0)
lambda_12_11_1                                      1 	(obj:0)
lambda_12_15_1                                      1 	(obj:0)
lambda_12_16_1                                      1 	(obj:0)
lambda_12_18_1                                      1 	(obj:0)
lambda_13_0_1                                       1 	(obj:0)
lambda_13_1_1                                       1 	(obj:0)
lambda_13_2_1                                       1 	(obj:0)
lambda_13_3_1                                       1 	(obj:0)
lambda_13_4_1                                       1 	(obj:0)
lambda_13_5_1                                       1 	(obj:0)
lambda_13_7_1                                       1 	(obj:0)
lambda_13_9_1                                       1 	(obj:0)
lambda_13_11_1                                      1 	(obj:0)
lambda_13_12_1                                      1 	(obj:0)
lambda_13_15_1                                      1 	(obj:0)
lambda_13_16_1                                      1 	(obj:0)
lambda_13_18_1                                      1 	(obj:0)
lambda_14_0_1                                       1 	(obj:0)
lambda_14_1_1                                       1 	(obj:0)
lambda_14_2_1                                       1 	(obj:0)
lambda_14_3_1                                       1 	(obj:0)
lambda_14_4_1                                       1 	(obj:0)
lambda_14_5_1                                       1 	(obj:0)
lambda_14_6_1                                       1 	(obj:0)
lambda_14_7_1                                       1 	(obj:0)
lambda_14_8_1                                       1 	(obj:0)
lambda_14_9_1                                       1 	(obj:0)
lambda_14_10_1                                      1 	(obj:0)
lambda_14_11_1                                      1 	(obj:0)
lambda_14_12_1                                      1 	(obj:0)
lambda_14_13_1                                      1 	(obj:0)
lambda_14_15_1                                      1 	(obj:0)
lambda_14_16_1                                      1 	(obj:0)
lambda_14_17_1                                      1 	(obj:0)
lambda_14_18_1                                      1 	(obj:0)
lambda_15_2_1                                       1 	(obj:0)
lambda_15_4_1                                       1 	(obj:0)
lambda_15_5_1                                       1 	(obj:0)
lambda_15_7_1                                       1 	(obj:0)
lambda_15_9_1                                       1 	(obj:0)
lambda_15_11_1                                      1 	(obj:0)
lambda_15_16_1                                      1 	(obj:0)
lambda_17_0_1                                       1 	(obj:0)
lambda_17_1_1                                       1 	(obj:0)
lambda_17_2_1                                       1 	(obj:0)
lambda_17_3_1                                       1 	(obj:0)
lambda_17_4_1                                       1 	(obj:0)
lambda_17_5_1                                       1 	(obj:0)
lambda_17_7_1                                       1 	(obj:0)
lambda_17_8_1                                       1 	(obj:0)
lambda_17_9_1                                       1 	(obj:0)
lambda_17_11_1                                      1 	(obj:0)
lambda_17_12_1                                      1 	(obj:0)
lambda_17_13_1                                      1 	(obj:0)
lambda_17_15_1                                      1 	(obj:0)
lambda_17_16_1                                      1 	(obj:0)
lambda_17_18_1                                      1 	(obj:0)
lambda_18_0_1                                       1 	(obj:0)
lambda_18_2_1                                       1 	(obj:0)
lambda_18_3_1                                       1 	(obj:0)
lambda_18_4_1                                       1 	(obj:0)
lambda_18_5_1                                       1 	(obj:0)
lambda_18_7_1                                       1 	(obj:0)
lambda_18_9_1                                       1 	(obj:0)
lambda_18_11_1                                      1 	(obj:0)
lambda_18_15_1                                      1 	(obj:0)
lambda_18_16_1                                      1 	(obj:0)
C953070                                             1 	(obj:-1000)
C953072                                             1 	(obj:-1000)
C953075                                             1 	(obj:-1000)
C953079                                             1 	(obj:-1000)
C953084                                             1 	(obj:-1000)
C953090                                             1 	(obj:-1000)
C953097                                             1 	(obj:-1000)
C953105                                             1 	(obj:-1000)
C953114                                             1 	(obj:-1000)
C953124                                             1 	(obj:-1000)
C953135                                             1 	(obj:-1000)
C953147                                             1 	(obj:-1000)
C953160                                             1 	(obj:-1000)
C953174                                             1 	(obj:-1000)
C953189                                             1 	(obj:-1000)
C953205                                             1 	(obj:-1000)
C953222                                             1 	(obj:-1000)
C953240                                             1 	(obj:-1000)
pse_X_0_x                                           6 	(obj:0)
pse_X_0_y                                          95 	(obj:0)
pse_X_0_z                                           6 	(obj:0)
pse_X_1_x                                           6 	(obj:0)
pse_X_1_y                                         115 	(obj:0)
pse_X_1_z                                           6 	(obj:0)
pse_X_2_x                                           6 	(obj:0)
pse_X_2_y                                          15 	(obj:0)
pse_X_2_z                                           6 	(obj:0)
C9                                                  6 	(obj:0)
C10                                                85 	(obj:0)
C11                                                 6 	(obj:0)
C12                                                 6 	(obj:0)
C13                                                65 	(obj:0)
C14                                                 6 	(obj:0)
C15                                                 6 	(obj:0)
C16                                                25 	(obj:0)
C17                                                 6 	(obj:0)
C18                                                 6 	(obj:0)
C19                                               165 	(obj:0)
C20                                                 6 	(obj:0)
C21                                                 6 	(obj:0)
C22                                                55 	(obj:0)
C23                                                 6 	(obj:0)
C24                                                 6 	(obj:0)
C25                                               145 	(obj:0)
C26                                                 6 	(obj:0)
C27                                                 6 	(obj:0)
C28                                                45 	(obj:0)
C29                                                 6 	(obj:0)
C30                                                 5 	(obj:0)
C31                                               175 	(obj:0)
C32                                                 5 	(obj:0)
C33                                                 5 	(obj:0)
C34                                                35 	(obj:0)
C35                                                 5 	(obj:0)
C36                                                 5 	(obj:0)
C37                                               125 	(obj:0)
C38                                                 5 	(obj:0)
C39                                                 5 	(obj:0)
C40                                               135 	(obj:0)
C41                                                 5 	(obj:0)
C42                                                 5 	(obj:0)
C43                                               185 	(obj:0)
C44                                                 5 	(obj:0)
C45                                                 5 	(obj:0)
C46                                                75 	(obj:0)
C47                                                 5 	(obj:0)
C48                                                 5 	(obj:0)
C49                                                 5 	(obj:0)
C50                                                 5 	(obj:0)
C51                                                 5 	(obj:0)
C52                                               155 	(obj:0)
C53                                                 5 	(obj:0)
C54                                                 5 	(obj:0)
C55                                               105 	(obj:0)
C56                                                 5 	(obj:0)
